Total weight: 1130.0
Route 1: 0 92 91 65 83 64 51 89 76 18 23 19 49 24 22 20 84 85 63 50 95 56 66 86 74 58 59 87 80 0 
Route 2: 0 81 54 72 39 42 45 7 73 15 11 98 69 88 60 79 78 53 99 52 9 10 12 14 47 17 16 13 97 75 77 25 21 48 57 82 90 0 
Route 3: 0 94 30 34 31 29 28 26 27 32 33 62 67 44 43 40 38 41 1 3 5 8 6 46 4 2 55 68 61 36 35 37 71 93 96 70 100 0 
